webassembly/ejemplos_dzn/folder16_json_35.dzn
TERM = { '.', 's(5)', 'in_10', 'in_1', 'in_6', 'in_9', 'in_0', 's(4)', 'in_3', 's(1)', 's(2)', 'in_2', 'in_8', 's(0)', 's(3)', 'local_0', 'local_1', 'in_4', 'in_7', 'in_5'};
null = '.';
s = 16;
n = 16;
ndeps = 10;
max_registers_sz = 5;
NR = 2;
registers = [|'local_0', 'in_9', |'local_1', 's(4)'|];
dependencies = [|'i32.load8_s_0', 'i32.store16_4', |'i32.store16_4', 'i32.load_6', |'i32.store16_4', 'i32.load_9', |'i32.store16_11', 'i32.store8_12', |'i32.store8_12', 'i32.store8_13', |'i32.store8_13', 'i32.load16_s_15', |'i32.load8_s_2', 'i32.store16_4', |'i32.load16_s_3', 'i32.store16_4', |'i32.load_6', 'i32.store16_11', |'i32.load_9', 'i32.store16_11'|];
GET_ENUM = { GET1, GET2, GET3, GET4, GET5, GET6, GET7};
SET_ENUM = { SET1, SET2, SET3, SET4, SET5, SET6, SET7};
TEE_ENUM = { TEE1, TEE2, TEE3, TEE4, TEE5, TEE6, TEE7};
N = 10;
OP = { 'i32.load8_s_0', 'i32.load8_s_2', 'i32.load16_s_3', 'i32.store16_4', 'i32.load_6', 'i32.load_9', 'i32.store16_11', 'i32.store8_12', 'i32.store8_13', 'i32.load16_s_15' };
in_ops = [1, 1, 1, 2, 1, 1, 2, 2, 2, 1 ];
out_ops = [1, 1, 1, 0, 1, 1, 0, 0, 0, 1 ];
in1 = ['in_0', 'in_1', 's(1)', 's(2)', 'in_3', 'local_0', 's(3)', 'in_5', 'in_7', 'in_10' ];
in2 = ['.', '.', '.', 'in_2', '.', '.', 'in_4', 'in_6', 'in_8', '.' ];
in3 = ['.', '.', '.', '.', '.', '.', '.', '.', '.', '.' ];
out1 = ['s(0)', 's(1)', 's(2)', '.', 's(3)', 's(4)', '.', '.', '.', 's(5)' ];
out2 = ['.', '.', '.', '.', '.', '.', '.', '.', '.', '.' ];
out3 = ['.', '.', '.', '.', '.', '.', '.', '.', '.', '.' ];
comm = [false, false, false, false, false, false, false, false, false, false ];
gas = [1, 1, 1, 1, 1, 1, 1, 1, 1, 1 ];
sz = [1, 1, 1, 1, 1, 1, 1, 1, 1, 1 ];
stor = [false, false, false, true, false, false, true, true, true, false ];
lb = [ 1, 1, 1, 1, 1, 1, 1, 1, 1, 1 ];
ub = [ 16, 16, 16, 16, 16, 16, 16, 16, 16, 16 ];
startstack = [ 'in_0', 'in_1', 'in_2', 'in_3', 'in_4', 'in_5', 'in_6', 'in_7', 'in_8', 'in_9', 'in_10', null, null, null, null, null ];
endstack = [ 's(5)', null, null, null, null, null, null, null, null, null, null, null, null, null, null, null ];
